n = 4;
m = 4;
k = 4;

% soddisfacibile senza rotazione
colors = [| 1, 2, 4, 3| 4, 2, 3, 1 | 1, 3, 4, 2| 1, 2, 4, 3| 4, 3, 2, 1| 3, 4, 1, 2 | 1, 3, 4, 2| 3, 2, 1, 4| 4, 2, 1, 3
	   |2, 1, 4, 3| 4, 3, 1, 2 | 1, 3, 2, 4| 3, 4, 1, 2| 4, 2, 3, 1| 1, 2, 4, 3 | 4, 2, 1, 3|];

% soddisfacibile con rotazione
%colors = [| 4, 3, 1, 2| 1, 4, 2, 3 | 4, 2, 1, 3| 1, 2, 4, 3| 4, 3, 2, 1| 3, 4, 1, 2 | 1, 3, 4, 2| 3, 2, 1, 4| 4, 2, 1, 3
%	  |2, 1, 4, 3| 1, 2, 4, 3 | 1, 3, 2, 4| 1, 2, 3, 4| 4, 2, 3, 1| 1, 2, 4, 3 | 4, 2, 1, 3|];

